param set_len = 40;
param target_sum = 8264952428;
param values := [1] 713122073 [2] 405555993 [3] 1035969524 [4] 945604110 [5] 826473305 [6] 649460858 [7] 49465420 [8] 1050815183 [9] 650026034 [10] 771715885 [11] 231086161 [12] 102236071 [13] 781438217 [14] 783446044 [15] 471660902 [16] 251408674 [17] 161230689 [18] 98632191 [19] 42003326 [20] 46352101 [21] 459933690 [22] 385145106 [23] 627551697 [24] 812549544 [25] 608934213 [26] 27295892 [27] 65309479 [28] 194914570 [29] 547692991 [30] 703477562 [31] 48258853 [32] 1050947893 [33] 598523261 [34] 496569741 [35] 484396098 [36] 195740992 [37] 209352441 [38] 551745552 [39] 81836500 [40] 686581504 ;
